<number of tasks>
50

<cycle time>
1000

<order strength>
0.197


<task times>
1 725
2 669
3 609
4 736
5 483
6 400
7 231
8 517
9 474
10 376
11 579
12 652
13 478
14 620
15 500
16 244
17 433
18 594
19 553
20 471
21 477
22 439
23 661
24 510
25 627
26 644
27 531
28 473
29 516
30 435
31 438
32 441
33 346
34 812
35 515
36 545
37 609
38 568
39 216
40 337
41 427
42 471
43 418
44 420
45 650
46 466
47 391
48 564
49 467
50 415

<precedence relations>
1,34
2,9
2,13
3,8
3,12
3,29
3,31
4,7
4,11
4,26
4,39
5,6
5,10
6,34
7,34
8,34
9,16
10,15
10,17
10,19
11,20
11,32
13,14
13,18
14,34
15,21
16,22
17,23
18,24
18,25
18,30
21,29
22,27
23,30
24,28
24,31
24,32
25,26
25,32
25,33
26,34
27,36
28,35
28,37
29,39
30,38
32,38
34,40
34,41
34,42
34,43
34,44
35,45
36,46
36,47
37,49
38,48
45,50

<end>
